c description: Random 3-CNF over 17 variables and 72 clauses
c generator: CNFgen (0.9.2)
c copyright: (C) 2012-2022 Massimo Lauria <massimo.lauria@uniroma1.it>
c url: https://massimolauria.net/cnfgen
c command line: cnfgen --output CNF_4.28/17_bit_72_390.cnf randkcnf 3 17 72
c
p cnf 17 72
10 15 -16 0
-5 -10 16 0
1 -10 12 0
1 -6 -7 0
1 -2 -7 0
1 9 13 0
9 11 17 0
2 10 -14 0
-2 -10 11 0
-9 11 -15 0
-1 4 13 0
1 -2 -6 0
-2 5 -15 0
1 13 17 0
2 7 11 0
-6 -9 -12 0
-9 -11 17 0
2 4 -8 0
1 -9 -14 0
-6 10 16 0
6 9 12 0
1 -4 17 0
-2 5 13 0
2 -3 8 0
-4 12 13 0
2 -8 -14 0
-2 -3 10 0
9 -10 -13 0
-2 -6 14 0
-7 10 16 0
-14 15 16 0
-13 16 17 0
6 7 11 0
-2 -8 10 0
6 -11 -16 0
-5 7 12 0
-2 10 11 0
3 5 -6 0
2 14 16 0
1 -6 12 0
1 10 -11 0
-10 11 17 0
2 5 -6 0
3 8 12 0
4 7 -14 0
3 5 17 0
-5 -7 -8 0
10 -13 15 0
-5 8 12 0
-7 -10 -14 0
-1 -11 16 0
-1 3 -13 0
-2 -11 -14 0
-6 -7 -13 0
6 9 -17 0
-3 6 7 0
-3 -5 -16 0
-14 16 -17 0
-1 2 -9 0
-2 -12 16 0
-11 -14 -17 0
9 12 14 0
9 -10 -16 0
7 12 -15 0
-9 -13 -17 0
3 -6 -13 0
4 -8 11 0
7 -14 17 0
-5 13 16 0
-4 9 16 0
-7 -8 -15 0
-3 -10 -17 0
